
Gurobi 10.0.3 (linux64, gurobi_cl) logging started Fri Nov 10 19:58:17 2023

Set parameter Username
Set parameter TimeLimit to value 3600
Set parameter LogFile to value "RCPSP_1744.log"
Set parameter Threads to value 32
Academic license - for non-commercial use only - expires 2024-11-06
Using license file /home/jrivera6/gurobi-licenses/v1003/compute-0-36/gurobi.lic

Gurobi Optimizer version 10.0.3 build v10.0.3rc0 (linux64)
Copyright (c) 2023, Gurobi Optimization, LLC

Read MPS format model from file RCPSP_1744.mps
Reading time = 0.18 seconds
RCPSP_1744: 75251 rows, 29890 columns, 266065 nonzeros

CPU model: Intel(R) Xeon(R) Gold 6130 CPU @ 2.10GHz, instruction set [SSE2|AVX|AVX2|AVX512]
Thread count: 32 physical cores, 32 logical processors, using up to 32 threads

Optimize a model with 75251 rows, 29890 columns and 266065 nonzeros
Model fingerprint: 0xf203b899
Variable types: 122 continuous, 29768 integer (29768 binary)
Coefficient statistics:
  Matrix range     [1e+00, 6e+02]
  Objective range  [1e+00, 1e+00]
  Bounds range     [1e+00, 1e+00]
  RHS range        [1e+00, 6e+02]
Presolve removed 24414 rows and 7276 columns (presolve time = 5s) ...
Presolve removed 24414 rows and 7276 columns (presolve time = 10s) ...
Presolve removed 28996 rows and 8944 columns
Presolve time: 10.96s
Presolved: 46255 rows, 20946 columns, 166888 nonzeros
Variable types: 121 continuous, 20825 integer (20825 binary)

Deterministic concurrent LP optimizer: primal and dual simplex (primal and dual model)
Showing first log only...

Root relaxation presolved: 46240 rows, 20961 columns, 166858 nonzeros


Root simplex log...

Iteration    Objective       Primal Inf.    Dual Inf.      Time
       0    1.1207099e+02   5.810687e-03   9.161327e+07     12s
    3287    1.1200000e+02   0.000000e+00   0.000000e+00     13s
    3287    1.1200000e+02   0.000000e+00   0.000000e+00     13s
Concurrent spin time: 0.71s

Solved with dual simplex (primal model)

Root relaxation: objective 1.120000e+02, 6406 iterations, 2.39 seconds (0.23 work units)
Total elapsed time = 18.32s
Total elapsed time = 20.84s

    Nodes    |    Current Node    |     Objective Bounds      |     Work
 Expl Unexpl |  Obj  Depth IntInf | Incumbent    BestBd   Gap | It/Node Time

     0     0  112.00000    0  652          -  112.00000      -     -   27s
     0     0  112.00000    0  652          -  112.00000      -     -   27s
     0     0  112.70588    0 1284          -  112.70588      -     -   62s
     0     0  112.70588    0 1334          -  112.70588      -     -   64s
     0     0  112.70588    0 1288          -  112.70588      -     -   65s
     0     0  112.70588    0 1347          -  112.70588      -     -   68s
     0     0  112.70588    0 1341          -  112.70588      -     -   69s
     0     0  112.70588    0 1338          -  112.70588      -     -   69s
     0     0  114.37209    0 1415          -  114.37209      -     -   85s
     0     0  114.37209    0 1431          -  114.37209      -     -   87s
     0     0  114.37209    0 1427          -  114.37209      -     -   87s
     0     0  115.00000    0 1531          -  115.00000      -     -   95s
     0     0  115.00000    0 1498          -  115.00000      -     -   97s
     0     0  115.00000    0 1480          -  115.00000      -     -   98s
     0     0  118.00000    0 1351          -  118.00000      -     -  105s
     0     0  118.00000    0 1350          -  118.00000      -     -  105s
     0     0  118.95425    0 1434          -  118.95425      -     -  116s
     0     0  118.95425    0 1402          -  118.95425      -     -  117s
     0     0  118.95425    0 1292          -  118.95425      -     -  133s
     0     0  118.95425    0 1157          -  118.95425      -     -  135s
     0     0  118.95425    0 1149          -  118.95425      -     -  135s
     0     0  118.95425    0 1348          -  118.95425      -     -  143s
     0     0  118.95425    0 1217          -  118.95425      -     -  145s
     0     0  118.95425    0 1206          -  118.95425      -     -  145s
     0     0  118.95425    0 1180          -  118.95425      -     -  153s
     0     0  118.95425    0 1176          -  118.95425      -     -  153s
     0     0  118.95425    0 1433          -  118.95425      -     -  167s
     0     0  118.95425    0 1394          -  118.95425      -     -  168s
     0     0  118.95425    0 1265          -  118.95425      -     -  171s
     0     0  118.95425    0  492          -  118.95425      -     -  227s
     0     0  118.95425    0 1526          -  118.95425      -     -  245s
     0     0  118.95425    0 1408          -  118.95425      -     -  246s
     0     0  118.95425    0 1367          -  118.95425      -     -  271s
     0     0  118.95425    0 1427          -  118.95425      -     -  274s
     0     0  118.95425    0 1452          -  118.95425      -     -  275s
     0     0  118.95425    0  516          -  118.95425      -     -  317s
     0     0  118.95425    0  484          -  118.95425      -     -  319s
     0     0  118.95425    0  487          -  118.95425      -     -  319s
     0     0  118.95425    0  827          -  118.95425      -     -  329s
     0     0  118.95425    0  821          -  118.95425      -     -  330s
     0     0  118.95425    0 1170          -  118.95425      -     -  331s
     0     0  118.95425    0 1126          -  118.95425      -     -  332s
     0     0  118.95425    0 1154          -  118.95425      -     -  338s
     0     0  118.95425    0 1149          -  118.95425      -     -  338s
     0     0  118.95425    0 1162          -  118.95425      -     -  348s
     0     0  118.95425    0 1102          -  118.95425      -     -  349s
     0     0  118.95425    0 1200          -  118.95425      -     -  352s
     0     0  118.95425    0 1114          -  118.95425      -     -  353s
     0     0  118.95425    0 1069          -  118.95425      -     -  354s
     0     0  119.00104    0 1202          -  119.00104      -     -  365s
     0     0  119.00104    0 1159          -  119.00104      -     -  367s
     0     0  119.92882    0 1325          -  119.92882      -     -  413s
     0     0  119.92882    0 1276          -  119.92882      -     -  415s
     0     0  119.92882    0 1264          -  119.92882      -     -  415s
     0     0  120.27095    0 1320          -  120.27095      -     -  422s
     0     0  120.27095    0 1145          -  120.27095      -     -  426s
     0     0  120.27095    0 1073          -  120.27095      -     -  430s
     0     0  120.27095    0 1141          -  120.27095      -     -  433s
     0     0  120.27095    0 1175          -  120.27095      -     -  436s
     0     0  120.27095    0 1215          -  120.27095      -     -  440s
     0     0  120.31397    0 1296          -  120.31397      -     -  465s
     0     0  120.31397    0 1171          -  120.31397      -     -  467s
     0     0  120.31397    0 1140          -  120.31397      -     -  467s
     0     0  120.33589    0 1353          -  120.33589      -     -  472s
     0     0  120.33589    0 1187          -  120.33589      -     -  474s
     0     0  120.33589    0 1187          -  120.33589      -     -  475s
     0     0  120.33589    0 1213          -  120.33589      -     -  481s
     0     0  120.33589    0 1273          -  120.33589      -     -  483s
     0     0  120.33589    0 1290          -  120.33589      -     -  485s
     0     0  120.33589    0 1284          -  120.33589      -     -  485s
     0     0  121.00000    0 1229          -  121.00000      -     -  495s
     0     0  121.00000    0 1213          -  121.00000      -     -  495s
     0     0  122.10784    0 1252          -  122.10784      -     -  507s
     0     0  122.10784    0 1247          -  122.10784      -     -  508s
     0     0  122.10784    0 1245          -  122.10784      -     -  508s
     0     0  122.10784    0 1125          -  122.10784      -     -  515s
     0     0  122.10784    0 1121          -  122.10784      -     -  515s
     0     0  122.10784    0 1199          -  122.10784      -     -  530s
     0     0  122.10784    0 1169          -  122.10784      -     -  533s
     0     0  122.10784    0 1228          -  122.10784      -     -  551s
     0     0  122.10784    0 1213          -  122.10784      -     -  551s
     0     0  122.10955    0 1276          -  122.10955      -     -  565s
     0     0  122.10955    0 1243          -  122.10955      -     -  566s
     0     0  122.10955    0 1254          -  122.10955      -     -  576s
     0     0  122.10955    0 1250          -  122.10955      -     -  577s
     0     0  123.95425    0 1247          -  123.95425      -     -  598s
     0     0  123.95425    0 1194          -  123.95425      -     -  599s
     0     0  123.95425    0 1188          -  123.95425      -     -  600s
     0     0  123.95425    0 1398          -  123.95425      -     -  614s
     0     0  123.95425    0 1353          -  123.95425      -     -  617s
     0     0  123.95425    0 1312          -  123.95425      -     -  619s
     0     0  123.95425    0 1272          -  123.95425      -     -  620s
     0     0  123.95425    0 1185          -  123.95425      -     -  635s
     0     0  123.95425    0 1180          -  123.95425      -     -  637s
     0     0  123.95425    0 1117          -  123.95425      -     -  638s
     0     0  123.95425    0 1351          -  123.95425      -     -  653s
     0     0  123.95425    0 1382          -  123.95425      -     -  656s
     0     0  123.95425    0 1325          -  123.95425      -     -  657s
     0     0  123.95425    0  793          -  123.95425      -     -  691s
     0     0  123.95425    0 1210          -  123.95425      -     -  701s
     0     0  123.95425    0 1334          -  123.95425      -     -  705s
     0     0  123.95425    0 1319          -  123.95425      -     -  705s
     0     0  123.95425    0  968          -  123.95425      -     -  751s
     0     0  123.95425    0 1343          -  123.95425      -     -  754s
     0     0  123.95425    0 1142          -  123.95425      -     -  776s
     0     0  123.95425    0 1139          -  123.95425      -     -  776s
     0     0  123.95425    0 1300          -  123.95425      -     -  808s
     0     0  123.95425    0 1257          -  123.95425      -     -  809s
     0     0  123.95425    0  747          -  123.95425      -     -  834s
     0     2  123.95425    0  607          -  123.95425      -     -  890s
     1     5  124.00000    1  694          -  123.95425      -  4125  902s
     3     8  124.00000    2 1013          -  123.95425      -  1831  944s
     7    12  124.00000    3 1193          -  124.00000      -  2001  986s
    15    16  124.00000    4 1128          -  124.00000      -  1661 1019s
    27    20  124.00000    5 1108          -  124.00000      -  1360 1059s
    43    28  124.00000    6 1359          -  124.00000      -  1066 1102s
    63    52  124.00000    7 1257          -  124.00000      -  1122 1186s
    91    80  124.00000    8 1245          -  124.00000      -  1210 1305s
   123   112  124.00000    9 1243          -  124.00000      -  1058 1491s
   155   144  124.00000   10 1197          -  124.00000      -   946 1545s
   187   187  124.00000   11 1192          -  124.00000      -   831 1649s
   234   228  124.00000   12 1190          -  124.00000      -   744 1707s
   280   270  124.00000   14 1160          -  124.00000      -   674 1790s
   329   331  124.00000   15 1154          -  124.00000      -   611 1825s
   395   393  124.00000   15 1211          -  124.00000      -   542 2029s
   458   444  124.00000   16 1210          -  124.00000      -   499 2437s
   514   505  124.00000   19 1187          -  124.00000      -   476 2835s
   582   584  124.00000   20 1207          -  124.00000      -   446 3018s
   666   672  124.00000   21 1142          -  124.00000      -   408 3155s
   757   782  124.00000   22 1157          -  124.00000      -   374 3222s
   874   960  124.00000   23 1120          -  124.00000      -   337 3614s

Cutting planes:
  Learned: 7
  Gomory: 12
  Cover: 186
  Implied bound: 170
  Clique: 43
  MIR: 1773
  StrongCG: 20
  Zero half: 5
  RLT: 806
  Relax-and-lift: 173

Explored 1063 nodes (529705 simplex iterations) in 3705.64 seconds (130.72 work units)
Thread count was 32 (of 32 available processors)

Solution count 0

Time limit reached
Best objective -, best bound 1.240000000000e+02, gap -

Unable to retrieve attribute 'X'

